100
43 0
21 0
18 0
20 3
24 1
21 4
23 3
33 4
34 2
2 1
14 3
13 3
43 2
8 3
30 4
4 0
4 4
17 4
0 4
29 3
27 0
17 0
32 3
5 4
11 2
36 3
20 2
9 3
42 0
22 2
5 0
9 0
40 4
23 0
22 1
1 4
35 4
31 3
22 0
36 4
42 2
29 1
43 1
22 4
14 0
26 1
2 4
20 4
18 4
39 1
33 0
19 0
4 3
3 4
15 4
1 3
15 3
0 0
36 0
21 1
40 3
25 3
13 4
41 4
14 1
35 0
19 4
44 3
2 3
44 0
15 0
16 4
34 0
6 4
42 1
37 0
26 4
20 0
18 1
39 3
15 1
1 0
31 0
38 0
24 2
40 1
6 1
31 4
40 0
7 4
10 4
6 0
27 4
24 0
37 4
10 3
42 4
10 0
5 3
28 0

